min: c;

c = 3.48742122635386 * u4_t1_h1 + 3.67235762947983 * u4_t1_h2 + 3.07730694076836 * u4_t1_h3 + 2.76747191145808 * u4_t1_h4 + 2.76747191145808 * u4_t10_h4 + 3.3611924999809 * u4_t1_h5 + 3.3611924999809 * u4_t10_h5 + 4.3524724566648 * u4_t1_h6 + 4.3524724566648 * u4_t10_h6 + 3.73244539169483 * u4_t1_h7 + 3.73244539169483 * u4_t10_h7 + 4.98584124072826 * u4_t1_h8 + 4.98584124072826 * u4_t9_h8 + 4.98584124072826 * u4_t10_h8 + 4.96937860716815 * u4_t9_h9 + 4.96937860716815 * u4_t10_h9 + 5.78065640298759 * u4_t9_h10 + 5.78065640298759 * u4_t10_h10 + 4.02895342668424 * u4_t2_h11 + 4.02895342668424 * u4_t4_h11 + 4.02895342668424 * u4_t9_h11 + 4.02895342668424 * u4_t10_h11 + 6.1746601851145 * u4_t2_h12 + 6.1746601851145 * u4_t3_h12 + 6.1746601851145 * u4_t4_h12 + 6.1746601851145 * u4_t8_h12 + 6.1746601851145 * u4_t9_h12 + 6.1746601851145 * u4_t10_h12 + 4.06345088539609 * u4_t2_h13 + 4.06345088539609 * u4_t3_h13 + 4.06345088539609 * u4_t4_h13 + 4.06345088539609 * u4_t8_h13 + 4.06345088539609 * u4_t9_h13 + 5.88204301333634 * u4_t2_h14 + 5.88204301333634 * u4_t3_h14 + 5.88204301333634 * u4_t4_h14 + 5.88204301333634 * u4_t8_h14 + 5.88204301333634 * u4_t9_h14 + 6.50955342053143 * u4_t2_h15 + 6.50955342053143 * u4_t3_h15 + 6.50955342053143 * u4_t4_h15 + 6.50955342053143 * u4_t8_h15 + 6.50955342053143 * u4_t9_h15 + 6.23455879581818 * u4_t2_h16 + 6.23455879581818 * u4_t3_h16 + 6.23455879581818 * u4_t4_h16 + 6.23455879581818 * u4_t5_h16 + 6.23455879581818 * u4_t8_h16 + 6.23455879581818 * u4_t9_h16 + 6.36749647355515 * u4_t2_h17 + 6.36749647355515 * u4_t3_h17 + 6.36749647355515 * u4_t5_h17 + 6.36749647355515 * u4_t8_h17 + 6.36749647355515 * u4_t9_h17 + 6.4590681783966 * u4_t2_h18 + 6.4590681783966 * u4_t3_h18 + 6.4590681783966 * u4_t5_h18 + 6.4590681783966 * u4_t8_h18 + 6.4590681783966 * u4_t9_h18 + 5.15934275392619 * u4_t2_h19 + 5.15934275392619 * u4_t3_h19 + 5.15934275392619 * u4_t6_h19 + 5.15934275392619 * u4_t8_h19 + 5.15934275392619 * u4_t9_h19 + 5.90186708463117 * u4_t2_h20 + 5.90186708463117 * u4_t6_h20 + 5.90186708463117 * u4_t9_h20 + 5.71613145453629 * u4_t6_h21 + 6.04541410148484 * u4_t6_h22 + 6.04541410148484 * u4_t7_h22 + 5.73832398386535 * u4_t6_h23 + 5.73832398386535 * u4_t7_h23;
0 <= u4_t1_h1 <= 1;
0 <= u4_t1_h2 <= 1;
0 <= u4_t1_h3 <= 1;
0 <= u4_t1_h4 <= 1;
0 <= u4_t1_h5 <= 1;
0 <= u4_t1_h6 <= 1;
0 <= u4_t1_h7 <= 1;
0 <= u4_t1_h8 <= 1;
u4_t1_h1 + u4_t1_h2 + u4_t1_h3 + u4_t1_h4 + u4_t1_h5 + u4_t1_h6 + u4_t1_h7 + u4_t1_h8 = 1;
0 <= u4_t2_h11 <= 1;
0 <= u4_t2_h12 <= 1;
0 <= u4_t2_h13 <= 1;
0 <= u4_t2_h14 <= 1;
0 <= u4_t2_h15 <= 1;
0 <= u4_t2_h16 <= 1;
0 <= u4_t2_h17 <= 1;
0 <= u4_t2_h18 <= 1;
0 <= u4_t2_h19 <= 1;
0 <= u4_t2_h20 <= 1;
u4_t2_h11 + u4_t2_h12 + u4_t2_h13 + u4_t2_h14 + u4_t2_h15 + u4_t2_h16 + u4_t2_h17 + u4_t2_h18 + u4_t2_h19 + u4_t2_h20 = 2;
0 <= u4_t3_h12 <= 1;
0 <= u4_t3_h13 <= 1;
0 <= u4_t3_h14 <= 1;
0 <= u4_t3_h15 <= 1;
0 <= u4_t3_h16 <= 1;
0 <= u4_t3_h17 <= 1;
0 <= u4_t3_h18 <= 1;
0 <= u4_t3_h19 <= 1;
u4_t3_h12 + u4_t3_h13 + u4_t3_h14 + u4_t3_h15 + u4_t3_h16 + u4_t3_h17 + u4_t3_h18 + u4_t3_h19 = 3;
0 <= u4_t4_h11 <= 1;
0 <= u4_t4_h12 <= 1;
0 <= u4_t4_h13 <= 1;
0 <= u4_t4_h14 <= 1;
0 <= u4_t4_h15 <= 1;
0 <= u4_t4_h16 <= 1;
u4_t4_h11 + u4_t4_h12 + u4_t4_h13 + u4_t4_h14 + u4_t4_h15 + u4_t4_h16 = 3;
0 <= u4_t5_h16 <= 1;
0 <= u4_t5_h17 <= 1;
0 <= u4_t5_h18 <= 1;
u4_t5_h16 + u4_t5_h17 + u4_t5_h18 = 1;
0 <= u4_t6_h19 <= 1;
0 <= u4_t6_h20 <= 1;
0 <= u4_t6_h21 <= 1;
0 <= u4_t6_h22 <= 1;
0 <= u4_t6_h23 <= 1;
u4_t6_h19 + u4_t6_h20 + u4_t6_h21 + u4_t6_h22 + u4_t6_h23 = 3;
0 <= u4_t7_h22 <= 1;
0 <= u4_t7_h23 <= 1;
u4_t7_h22 + u4_t7_h23 = 1;
0 <= u4_t8_h12 <= 1;
0 <= u4_t8_h13 <= 1;
0 <= u4_t8_h14 <= 1;
0 <= u4_t8_h15 <= 1;
0 <= u4_t8_h16 <= 1;
0 <= u4_t8_h17 <= 1;
0 <= u4_t8_h18 <= 1;
0 <= u4_t8_h19 <= 1;
u4_t8_h12 + u4_t8_h13 + u4_t8_h14 + u4_t8_h15 + u4_t8_h16 + u4_t8_h17 + u4_t8_h18 + u4_t8_h19 = 2;
0 <= u4_t9_h8 <= 1;
0 <= u4_t9_h9 <= 1;
0 <= u4_t9_h10 <= 1;
0 <= u4_t9_h11 <= 1;
0 <= u4_t9_h12 <= 1;
0 <= u4_t9_h13 <= 1;
0 <= u4_t9_h14 <= 1;
0 <= u4_t9_h15 <= 1;
0 <= u4_t9_h16 <= 1;
0 <= u4_t9_h17 <= 1;
0 <= u4_t9_h18 <= 1;
0 <= u4_t9_h19 <= 1;
0 <= u4_t9_h20 <= 1;
u4_t9_h8 + u4_t9_h9 + u4_t9_h10 + u4_t9_h11 + u4_t9_h12 + u4_t9_h13 + u4_t9_h14 + u4_t9_h15 + u4_t9_h16 + u4_t9_h17 + u4_t9_h18 + u4_t9_h19 + u4_t9_h20 = 2;
0 <= u4_t10_h4 <= 1;
0 <= u4_t10_h5 <= 1;
0 <= u4_t10_h6 <= 1;
0 <= u4_t10_h7 <= 1;
0 <= u4_t10_h8 <= 1;
0 <= u4_t10_h9 <= 1;
0 <= u4_t10_h10 <= 1;
0 <= u4_t10_h11 <= 1;
0 <= u4_t10_h12 <= 1;
u4_t10_h4 + u4_t10_h5 + u4_t10_h6 + u4_t10_h7 + u4_t10_h8 + u4_t10_h9 + u4_t10_h10 + u4_t10_h11 + u4_t10_h12 = 2;
